<?xml version="1.0" encoding="UTF-8"?>
<xrdMeasurements xmlns="http://www.xrdml.com/XRDMeasurement/1.0" xmlns:xsi="http://www.w3.org/2001/XMLSchema-instance" xsi:schemaLocation="http://www.xrdml.com/XRDMeasurement/1.0 http://www.xrdml.com/XRDMeasurement/1.0/XRDMeasurement.xsd" status="Completed">
	<sample type="To be analyzed">
		<id>X LaB6</id>
	</sample>
	<xrdMeasurement measurementType="Scan" status="Completed">
		<usedWavelength intended="K-Alpha 1">
			<kAlpha1 unit="Angstrom">1.5405980</kAlpha1>
			<kAlpha2 unit="Angstrom">1.5444260</kAlpha2>
			<kBeta unit="Angstrom">1.3922499</kBeta>
			<ratioKAlpha2KAlpha1>0.500</ratioKAlpha2KAlpha1>
		</usedWavelength>
		<incidentBeamPath>
			<radius unit="mm">200.00</radius>
			<xRayTube id="1010001" name="PW2273 or PW2773 Cu LFF ">
				<tension unit="kV">40</tension>
				<current unit="mA">30</current>
				<anodeMaterial>Cu</anodeMaterial>
				<focus type="Line">
					<length unit="mm">12.0</length>
					<width unit="mm">0.4</width>
					<takeOffAngle unit="deg">6.0</takeOffAngle>
				</focus>
			</xRayTube>
			<sollerSlit id="21010006" name="Inc. Soller 0.04 rad.">
				<opening unit="rad">0.0400</opening>
			</sollerSlit>
			<divergenceSlit id="22010015" name="Autom. Div. Slit Medium 10 mm" xsi:type="automaticDivergenceSlitType">
				<irradiatedLength unit="mm">10.000</irradiatedLength>
				<offset unit="mm">0.000</offset>
			</divergenceSlit>
		</incidentBeamPath>
		<sampleMovement xsi:type="spinningSampleMovementType">
			<spinnerRevolutionTime unit="seconds">1.0</spinnerRevolutionTime>
		</sampleMovement>
		<diffractedBeamPath>
			<radius unit="mm">200.00</radius>
			<sollerSlit id="21010007" name="Diff. Soller 0.04 rad.">
				<opening unit="rad">0.0400</opening>
			</sollerSlit>
			<monochromator id="23010025" name="PW1801/29 for Cu" hybrid="false">
				<crystal type="Asymmetric" shape="Flat">0</crystal>
				<numberOfReflections>1</numberOfReflections>
			</monochromator>
			<receivingSlit id="22020010" name="Prog. Rec. Slit PW1800">
				<height unit="mm">0.30</height>
			</receivingSlit>
			<detector id="7010004" name="PW1711 (Proportional)" xsi:type="pointDetectorType">
			</detector>
		</diffractedBeamPath>
		<scan appendNumber="0" mode="Continuous" scanAxis="Gonio" status="Completed">
			<header>
				<startTimeStamp>2006-06-28T12:02:26+02:00</startTimeStamp>
				<endTimeStamp>2006-06-28T13:38:23+02:00</endTimeStamp>
				<author>
					<name>Mathys</name>
				</author>
				<source>
					<applicationSoftware version="1.0c">X'Pert Quantify</applicationSoftware>
				</source>
			</header>
			<dataPoints>
				<positions axis="2Theta" unit="deg">
					<startPosition>5.0100</startPosition>
					<endPosition>119.9900</endPosition>
				</positions>
				<commonCountingTime unit="seconds">1.00</commonCountingTime>
				<intensities unit="counts">88 81 97 104 95 96 100 97 98 88 85 92 102 84 96 93 92 89 86 99 80 104 83 87 85 88 104 86 97 105 106 84 79 89 74 83 93 92 77 82 79 100 96 89 83 69 84 77 91 96 88 80 91 88 94 80 89 91 81 75 76 80 102 74 77 82 75 81 72 88 87 92 87 72 87 65 88 78 77 83 103 81 78 87 73 81 91 83 88 90 92 84 80 90 98 82 83 84 88 79 83 75 88 70 81 83 89 81 81 90 67 88 92 86 77 106 99 84 81 77 81 65 84 86 78 63 84 70 78 92 93 93 91 78 91 80 97 84 105 97 82 93 75 65 94 85 60 78 78 80 60 74 79 81 86 96 93 75 80 95 86 88 82 75 74 77 79 85 63 77 82 96 95 89 77 93 88 58 77 83 72 67 71 80 81 77 70 69 67 89 73 70 82 73 78 71 89 65 90 72 71 67 65 86 90 88 85 74 84 91 80 81 80 77 79 72 60 87 83 89 69 95 73 79 85 89 77 75 66 62 65 97 77 81 82 77 60 77 63 80 71 80 72 86 73 84 74 64 94 66 80 63 83 84 73 79 73 84 62 72 69 67 67 62 72 77 81 68 78 53 69 67 78 84 72 65 80 74 87 65 84 79 69 66 76 76 76 62 75 75 81 84 78 81 75 58 67 65 68 60 69 76 83 73 73 52 76 59 63 72 76 69 49 76 79 75 77 62 63 68 82 66 64 69 69 64 71 56 69 52 77 82 79 80 63 70 82 84 82 85 74 67 64 72 73 57 82 65 72 87 76 74 72 55 59 72 66 72 61 74 61 89 64 83 61 74 61 83 57 75 52 55 66 72 66 70 82 72 68 70 86 62 82 64 66 59 65 56 69 70 72 68 56 67 60 62 63 65 80 63 76 68 62 69 66 61 61 81 77 58 69 74 62 67 50 73 75 72 63 55 70 73 74 67 63 81 64 59 64 68 64 75 63 56 65 59 64 72 73 62 65 58 69 69 50 65 61 67 66 69 80 57 65 49 71 66 74 54 67 49 65 65 67 74 56 66 71 58 58 61 71 62 54 57 56 61 60 68 69 56 59 79 63 57 68 61 63 63 46 59 60 60 61 61 57 54 60 51 69 80 62 65 61 66 52 64 59 72 74 66 57 61 62 67 57 67 63 59 50 51 57 67 48 59 57 55 50 49 78 50 63 70 63 61 70 58 73 73 44 56 64 62 62 60 74 56 64 67 69 64 65 56 54 52 58 56 59 60 53 69 54 62 86 46 61 57 64 64 70 55 69 56 52 54 49 52 62 64 57 66 53 57 60 78 72 51 42 58 57 47 67 43 53 60 53 49 57 63 44 54 66 50 58 68 60 61 67 57 55 51 54 67 62 55 58 62 60 47 62 46 58 50 44 58 47 62 65 57 49 62 57 61 56 63 67 54 55 53 72 68 63 50 56 59 50 58 61 47 58 63 63 70 58 57 48 58 45 53 62 51 42 48 49 57 54 49 64 55 61 53 44 60 58 49 52 62 54 46 60 41 61 69 52 47 51 55 59 42 49 50 52 39 59 60 55 54 50 53 55 50 35 50 51 50 61 52 50 61 67 64 57 58 51 53 47 57 53 67 52 38 63 46 47 47 42 63 55 51 45 57 69 62 58 50 52 51 55 33 37 55 50 54 52 59 48 49 46 52 49 60 45 54 51 42 49 62 44 51 45 36 59 44 48 69 57 57 69 49 51 58 44 60 48 45 45 53 65 68 40 65 57 48 40 52 41 53 60 51 58 37 52 50 53 53 75 81 80 79 102 104 108 127 126 148 173 161 217 259 282 423 460 588 838 1001 1426 1957 2908 3511 3663 3689 2819 1999 1211 719 348 189 157 133 122 110 114 92 61 71 51 67 43 51 60 44 40 46 46 49 44 61 48 44 51 46 38 56 56 45 56 56 48 45 38 41 41 39 58 42 47 44 49 35 55 40 46 44 39 46 51 41 41 33 42 36 37 50 40 37 49 37 36 51 40 46 39 51 56 38 52 44 51 47 49 55 46 55 56 39 43 46 45 44 37 43 41 43 38 47 43 50 40 51 48 47 39 52 41 53 35 54 38 55 55 36 44 47 40 41 44 41 52 46 54 43 39 38 60 40 53 41 52 46 30 51 39 50 41 41 39 57 46 43 44 37 43 44 47 41 44 42 48 30 48 21 33 48 44 40 50 42 40 36 50 50 46 41 45 41 42 44 39 40 57 42 37 51 47 44 37 47 52 47 46 44 36 46 44 49 45 46 51 36 38 38 41 39 34 48 42 38 43 41 42 51 29 30 34 35 47 48 38 37 57 33 58 45 50 44 44 31 42 44 33 35 29 34 36 35 40 41 44 35 44 36 29 39 31 34 28 45 42 37 39 48 36 31 44 40 40 37 51 37 32 43 38 39 41 45 37 37 40 36 40 39 38 41 40 41 28 44 36 49 35 41 44 33 43 48 44 33 43 33 42 42 48 40 51 40 47 40 35 33 42 39 33 32 40 45 32 42 32 45 31 37 37 35 42 34 26 38 33 37 34 35 43 47 24 40 33 41 29 44 41 47 47 40 39 37 39 44 28 36 47 49 43 35 37 42 39 42 37 39 37 39 40 42 32 40 32 29 39 33 41 35 60 37 38 38 41 41 35 33 40 31 44 36 30 36 31 27 36 36 33 33 35 33 20 27 36 35 43 48 27 32 38 34 33 38 36 32 36 36 37 38 31 29 28 45 36 31 31 40 41 47 35 42 28 38 42 31 42 36 33 42 45 34 49 38 44 45 49 42 58 50 55 56 72 67 65 68 89 84 96 108 123 147 166 166 167 198 235 241 299 340 485 571 858 1087 1608 2354 3730 5517 7362 7964 7849 7011 5670 4262 3184 2393 1227 653 373 297 280 217 175 149 133 113 100 87 80 67 60 54 45 43 37 54 45 34 41 40 37 41 33 35 40 38 41 32 26 42 27 52 40 27 28 37 37 32 32 27 30 31 25 38 37 29 29 31 40 32 25 36 46 24 28 29 35 42 34 30 37 39 29 51 25 31 38 31 30 37 27 34 20 28 28 31 29 37 39 36 38 30 35 31 38 25 25 34 34 32 34 37 36 27 35 40 26 30 44 27 45 28 35 43 31 35 35 44 37 35 31 33 34 35 24 28 27 24 34 31 34 31 35 28 29 26 35 21 26 37 26 33 26 27 28 32 28 26 31 28 24 32 33 22 32 31 34 30 31 18 32 34 20 30 41 31 32 21 28 28 24 24 37 31 23 36 38 26 37 36 24 33 28 27 34 28 29 27 34 40 30 25 30 35 31 31 22 32 29 21 32 33 29 28 26 29 27 26 36 32 30 27 34 29 22 26 35 32 23 19 32 31 25 26 27 24 30 31 23 33 25 24 30 19 20 34 30 35 35 31 27 33 32 38 25 27 24 34 26 26 29 32 29 23 26 29 22 30 21 22 26 31 26 28 27 29 33 24 33 27 29 36 21 29 38 25 32 22 29 25 25 27 34 30 28 23 27 17 29 28 30 29 38 33 29 31 31 33 21 21 33 33 28 28 29 32 22 20 39 34 39 34 28 25 27 33 44 35 24 36 36 27 33 41 35 41 43 38 42 47 48 57 74 74 76 83 109 107 113 108 131 138 173 234 280 320 484 730 1262 1854 2848 3757 4081 3850 3310 2730 2255 2079 1602 1135 613 310 181 157 114 128 113 83 84 80 72 60 43 43 37 44 25 47 31 30 32 35 31 29 39 28 31 37 36 21 24 31 29 29 25 29 28 19 30 25 21 22 30 24 34 21 31 28 26 20 25 29 28 40 33 29 23 30 18 31 33 23 22 26 29 24 22 25 20 20 24 32 29 32 29 26 39 31 34 30 30 26 29 35 24 36 24 22 25 24 24 30 19 19 27 26 29 26 30 22 28 24 27 24 28 19 29 20 17 23 24 33 24 33 26 25 34 20 28 29 23 27 34 22 26 22 22 17 23 21 23 20 31 28 36 27 29 18 16 23 32 25 31 18 26 28 23 24 28 33 31 18 26 22 33 22 28 23 24 38 29 33 21 29 29 20 27 30 30 20 30 29 27 22 30 33 25 22 19 32 22 14 31 35 31 23 24 17 28 28 28 24 24 33 24 20 27 36 29 23 26 26 33 27 33 36 27 28 31 24 32 25 25 24 31 16 26 27 24 27 27 24 27 17 32 19 24 26 26 26 28 19 23 19 18 25 25 21 25 33 32 27 31 30 24 26 25 29 23 38 35 33 26 25 26 28 23 29 27 29 27 34 30 27 26 25 33 32 30 40 29 29 34 49 50 47 54 54 58 77 73 58 86 84 101 92 127 123 176 253 372 594 1017 1584 2073 2374 2166 1856 1430 1256 1242 1222 984 768 355 213 129 108 96 72 69 68 60 57 47 28 41 35 35 27 41 34 34 26 34 37 20 34 31 26 32 28 23 29 36 21 15 24 27 27 28 29 20 30 30 27 18 27 38 24 20 29 34 17 28 26 32 29 28 23 32 25 15 29 26 13 30 19 29 23 22 24 24 32 27 24 18 19 23 20 19 30 19 28 18 19 30 21 24 25 21 26 18 30 24 20 29 25 33 25 34 23 26 24 32 22 28 24 21 17 16 21 24 26 20 28 24 25 21 26 25 19 29 15 26 17 23 30 22 20 27 19 26 28 33 31 23 34 26 18 27 22 19 23 20 27 33 20 19 24 24 25 20 22 21 27 15 14 21 32 29 26 23 23 26 36 28 25 25 23 18 24 26 34 29 25 24 18 23 21 23 16 24 28 19 15 20 28 23 23 20 27 27 20 24 25 20 24 30 22 24 24 23 21 31 25 32 28 23 35 26 26 24 37 26 31 32 31 18 22 29 37 39 29 35 40 24 38 31 40 44 34 48 47 38 40 44 38 38 48 32 49 44 53 53 67 70 83 90 101 103 119 127 151 165 201 195 234 210 243 303 422 631 1011 1851 3048 4749 5565 5743 5057 3783 2976 2682 2905 3144 2788 2126 1409 639 373 260 209 144 141 138 105 104 98 79 69 63 52 44 41 54 53 51 47 36 37 40 36 40 46 33 20 32 28 28 27 35 31 41 25 29 23 28 24 29 25 27 33 30 23 20 17 19 32 37 35 27 26 30 24 24 18 23 19 24 27 24 22 20 29 25 24 28 18 25 32 24 28 30 15 32 18 34 19 19 29 19 16 23 15 21 17 22 22 27 15 22 30 20 21 20 25 19 21 16 21 14 29 24 19 23 23 17 35 27 33 16 21 23 24 19 30 30 17 20 14 20 15 24 32 25 30 16 20 16 23 19 18 21 25 33 22 30 19 23 19 21 23 19 26 22 24 20 27 24 20 17 25 22 21 29 16 21 20 29 18 28 22 18 23 22 23 19 20 20 16 27 29 20 30 28 30 28 30 17 21 18 20 20 26 20 25 35 22 25 28 33 27 24 24 24 19 37 30 31 32 30 23 39 38 22 26 38 30 26 24 35 29 44 23 48 38 46 33 58 64 70 66 74 89 101 108 134 119 138 124 144 171 204 278 486 762 1427 2240 3183 3550 3252 2617 1805 1314 1319 1670 1864 1678 1295 941 472 267 175 148 124 89 71 71 48 56 57 57 38 50 41 36 34 33 47 29 32 27 29 26 22 23 30 34 38 30 31 25 26 30 32 26 27 16 29 29 23 19 24 23 27 22 21 23 23 29 21 21 32 20 22 24 22 26 25 25 24 15 23 28 26 16 18 24 28 23 20 25 22 28 17 24 28 24 31 24 18 19 19 22 25 22 23 19 11 18 23 25 26 28 17 26 16 24 24 20 22 21 20 25 17 19 18 15 20 25 27 20 24 18 22 27 22 26 23 23 19 23 22 19 16 19 22 24 13 15 24 25 18 19 25 23 16 24 18 14 15 20 19 24 23 13 22 25 16 19 24 22 23 15 17 19 19 15 13 19 13 22 21 17 22 18 25 18 31 28 14 17 14 32 21 14 19 23 22 24 24 16 22 12 16 18 21 27 19 25 27 20 17 16 17 22 21 30 26 29 19 26 28 23 26 25 15 24 17 21 28 25 23 21 22 22 22 19 23 21 18 28 20 28 16 22 31 22 23 24 25 27 14 26 23 23 19 20 22 23 24 26 23 16 17 21 21 20 23 27 24 30 18 21 25 27 21 25 24 19 24 23 22 18 23 20 22 24 17 21 15 22 18 22 23 19 27 29 18 21 17 36 19 29 23 31 31 17 30 17 20 19 20 23 29 17 18 20 24 8 19 29 18 19 18 26 21 18 20 27 26 17 18 23 26 22 26 21 25 29 22 20 18 22 20 22 22 18 21 20 23 21 23 20 21 19 23 17 18 23 25 19 20 27 14 36 22 14 13 16 14 28 17 13 20 21 19 17 18 15 30 17 21 24 30 17 26 29 13 22 23 21 20 21 18 29 21 29 22 21 23 11 25 21 26 27 19 25 21 20 28 17 18 17 26 23 28 29 22 17 27 28 28 25 27 31 27 25 28 25 38 20 33 33 22 23 34 26 24 33 33 24 34 33 31 28 40 45 23 33 34 49 40 48 58 60 50 49 66 64 73 65 76 85 100 173 293 432 828 1145 1406 1453 1203 905 575 388 421 505 704 826 730 615 401 222 145 107 75 46 45 48 49 27 47 46 44 36 40 31 28 39 33 23 29 23 36 37 23 36 31 29 17 25 28 25 23 28 21 28 22 28 20 25 30 23 15 16 24 28 20 19 20 31 28 26 17 21 28 23 25 25 26 22 18 14 35 16 20 24 13 32 26 25 17 15 28 22 21 25 28 27 19 21 26 25 18 22 19 14 22 26 22 27 17 31 22 20 27 25 28 18 25 22 22 25 22 24 16 21 25 20 23 18 19 27 35 29 29 33 25 19 28 25 30 25 33 27 26 22 24 21 20 26 19 22 19 23 29 26 26 24 27 27 32 25 25 35 27 26 32 32 32 33 27 31 22 28 19 32 30 28 30 35 42 35 33 40 31 33 32 35 34 30 37 35 50 43 31 31 43 38 40 35 50 47 61 51 54 78 88 103 117 138 130 140 143 137 145 149 174 187 240 326 596 1017 1758 2667 3722 4214 3803 3054 2017 1203 889 956 1347 1772 2096 2092 1807 1295 716 424 257 169 165 117 111 88 91 83 77 69 58 47 50 45 32 51 45 37 35 51 34 47 35 40 36 41 30 29 34 29 33 32 29 42 24 35 35 26 25 22 32 34 17 19 22 32 23 28 31 15 26 27 24 20 38 24 23 22 20 25 40 20 27 28 29 18 21 28 20 32 21 27 25 27 21 17 25 29 24 26 26 36 27 28 24 26 18 24 19 34 24 24 22 32 22 24 20 34 22 24 24 27 14 35 11 27 25 23 21 16 20 28 30 24 23 24 21 28 33 30 21 27 33 19 25 18 25 24 29 32 26 22 28 27 24 23 31 35 25 30 30 31 32 31 22 20 30 36 40 40 22 29 24 33 24 31 42 25 31 24 30 31 32 29 26 22 41 34 51 49 47 49 47 66 63 63 74 71 98 97 106 109 120 105 111 135 127 142 201 291 489 842 1502 2218 3005 3116 2674 2079 1329 771 547 535 760 1069 1450 1677 1572 1196 796 473 246 170 124 94 124 88 78 65 57 67 55 57 59 40 44 59 42 43 39 29 32 36 38 24 19 30 29 33 22 37 33 32 44 37 26 21 30 25 22 29 22 29 33 23 22 26 20 22 26 27 30 19 20 21 31 36 28 31 22 26 26 25 25 22 22 27 29 36 39 21 24 27 24 35 22 27 31 24 17 23 19 29 27 31 26 21 26 31 25 23 22 30 25 25 30 14 21 32 18 26 29 22 30 24 22 17 26 28 21 26 27 20 28 28 20 29 23 26 25 19 15 35 26 25 28 26 25 26 25 30 30 33 32 27 33 25 27 20 18 32 25 25 23 29 20 30 36 30 16 27 33 25 20 26 28 34 21 31 23 41 30 31 31 32 40 44 44 43 43 53 48 51 72 81 79 55 68 74 81 99 102 93 136 161 200 342 596 1054 1585 1955 2078 1932 1434 945 519 351 339 402 569 801 986 1070 944 755 465 277 173 124 104 76 85 74 69 60 51 42 49 39 50 41 43 39 36 36 29 36 28 24 27 34 25 30 24 21 37 28 27 32 23 28 29 29 26 31 25 14 34 24 18 31 22 24 22 29 26 32 23 21 22 30 17 24 25 23 29 25 24 23 26 21 23 28 26 21 27 25 20 29 20 25 20 26 29 15 18 20 14 21 19 21 20 22 32 23 18 15 19 36 21 24 23 23 35 24 15 14 25 26 26 26 28 26 22 25 19 28 26 24 24 21 22 27 15 34 20 27 22 26 19 23 15 26 28 28 18 24 23 25 24 22 19 21 18 25 20 19 27 28 28 25 25 38 20 14 22 21 25 22 28 30 20 25 19 23 22 29 28 37 28 33 28 29 33 38 35 37 29 34 33 33 38 35 43 35 40 54 72 100 176 285 355 393 360 290 213 135 100 78 66 86 116 184 215 209 183 157 111 90 43 42 39 41 34 26 34 35 16 38 24 21 28 25 26 24 24 27 30 20 27 16 26 18 27 23 24 25 26 29 28 25 25 21 24 23 23 23 19 22 27 21 24 25 26 27 15 24 19 20 18 15 22 34 16 23 26 13 23 26 22 22 21 27 20 27 27 14 31 15 24 26 21 27 32 19 19 23 26 27 29 23 19 24 24 24 23 25 23 26 17 18 27 24 22 32 30 40 27 21 21 26 19 22 23 24 37 24 30 33 25 17 33 22 30 30 24 31 33 28 27 24 21 29 24 27 19 27 23 30 21 26 32 25 20 29 27 28 27 32 26 26 17 23 30 29 31 28 26 27 32 22 24 34 40 30 34 38 52 42 33 25 51 31 40 44 48 62 53 70 60 62 67 84 107 121 157 257 426 658 1030 1298 1367 1349 992 673 407 236 177 152 196 283 441 570 691 754 612 482 357 194 116 77 68 70 57 48 43 48 43 44 48 38 40 35 30 32 39 32 30 29 27 17 36 29 23 28 26 37 33 30 27 23 26 34 22 26 28 27 35 27 24 26 28 20 19 20 29 35 26 26 29 22 26 25 26 31 20 29 22 23 33 32 21 23 25 33 22 22 29 32 20 30 28 27 31 27 26 24 23 24 49 29 30 36 29 29 31 34 29 25 28 29 28 25 31 25 33 29 35 27 29 20 23 30 31 26 33 30 25 28 29 23 30 21 39 30 42 30 24 39 34 38 31 44 26 27 32 37 25 34 19 34 31 28 24 31 31 31 41 29 37 26 32 34 34 25 36 45 38 40 48 59 52 67 53 49 64 62 57 82 74 76 76 85 85 89 90 105 125 113 159 151 197 278 473 696 1295 1861 2687 2915 2812 2398 1711 1077 643 402 327 342 396 563 837 1098 1444 1564 1318 1113 773 457 289 207 142 120 114 99 87 83 91 59 50 60 66 49 53 37 46 49 35 36 30 41 42 52 31 47 41 28 41 39 44 26 30 26 40 33 42 29 29 32 33 36 30 24 32 23 33 36 28 20 39 23 27 26 35 25 29 35 21 35 26 27 28 42 29 22 23 28 30 27 23 27 21 26 29 19 27 29 27 32 22 27 24 29 21 31 30 31 21 29 26 35 25 32 28 21 33 27 29 28 25 30 24 18 24 23 24 22 24 29 27 28 17 22 23 34 30 30 28 25 21 22 29 28 20 30 24 33 26 20 38 30 23 31 23 33 24 36 26 30 22 22 22 27 24 24 32 17 20 30 32 19 26 25 30 23 25 27 31 24 24 23 29 27 18 24 29 20 22 21 24 25 24 15 26 29 22 25 22 33 26 26 23 29 17 26 27 23 24 20 20 23 24 19 20 29 31 26 22 27 29 28 26 27 22 24 27 25 26 30 19 34 24 27 18 17 36 24 22 18 27 24 19 25 32 29 30 33 18 31 28 33 25 20 32 25 18 21 32 19 23 23 21 29 29 27 26 33 21 21 36 29 33 29 28 30 13 27 28 33 27 23 28 31 19 28 23 22 21 31 26 17 22 31 22 22 28 34 26 27 38 29 22 27 12 30 33 26 21 21 28 16 18 22 27 27 17 21 37 24 17 23 29 33 23 25 29 28 23 26 28 33 38 25 25 21 19 25 28 24 23 27 26 23 27 24 23 30 27 32 30 30 26 25 22 33 24 22 35 25 35 36 24 24 33 27 24 36 26 31 28 35 31 21 43 38 38 41 39 33 38 35 38 41 49 50 60 55 67 93 105 138 220 354 496 528 531 496 316 203 132 117 86 70 74 69 77 101 161 185 263 261 255 191 161 135 72 58 41 43 49 51 30 38 34 40 34 34 35 32 40 33 26 36 29 27 33 30 32 38 36 32 24 29 21 28 25 27 37 22 25 21 36 33 29 27 23 38 31 37 40 36 35 27 40 29 40 21 30 32 29 32 29 25 26 25 25 26 40 24 37 30 22 42 36 35 22 35 28 36 29 20 27 30 33 38 29 31 34 22 33 29 30 28 31 29 33 21 24 36 41 24 25 33 29 35 36 25 34 26 47 44 37 19 39 44 36 30 36 24 37 50 29 30 20 28 30 24 41 31 41 38 37 43 26 49 32 39 42 32 38 26 36 41 33 35 40 47 42 52 37 44 42 55 48 46 47 72 54 54 58 67 88 73 64 75 84 90 98 102 111 99 129 117 126 155 160 230 352 508 836 1286 2004 2457 2671 2542 1975 1347 882 544 381 313 266 259 267 294 404 519 880 1073 1383 1286 1242 1003 698 446 276 232 170 122 100 100 83 78 84 74 74 54 51 52 58 58 49 38 62 35 35 40 36 37 45 44 55 43 35 41 35 48 36 30 27 33 34 34 38 19 38 44 42 37 47 36 40 33 39 30 26 37 46 40 33 33 28 37 34 36 30 29 40 28 25 47 34 46 41 45 29 25 35 27 35 26 33 25 43 27 33 35 34 36 29 41 39 30 32 38 40 40 28 30 41 35 32 35 40 32 40 32 31 34 40 35 27 33 44 31 39 43 30 25 36 25 41 37 24 36 36 34 26 33 40 44 34 26 29 41 23 53 34 48 39 36 38 37 48 39 31 52 49 61 61 44 47 59 43 55 48 54 62 56 50 60 52 51 80 64 77 80 86 76 85 84 102 101 102 124 159 150 247 328 464 749 1226 1616 2110 2288 2127 1736 1222 804 493 351 260 235 221 194 201 256 343 428 612 830 1006 1173 1051 933 670 442 295 208 150 133 128 93 69 69 92 69 60 70 55 50 53 49 57 46 48 54 34 37 38 41 50 36 35 30 38 38 40 38 43 30 41 40 41 36 37 41 39 36 36 39 29 37 38 42 33 50 31 26 50 36 27 39 36 33 34 42 36 26 29 39 39 35 34 31 31 32 37 36 36 33 35 30 37 42 30 26 27 35 36 29 38 36 31 33 38 34 43 24 36 37 41 35 39 26 34 28 33 33 25 31 37 40 45 25 29 27 33 31 37 23 31 25 37 32 31 29 25 29 35 28 32 28 36 37 29 37 34 30 34 40 46 37 34 40 27 45 35 48 33 37 39 36 39 47 33 48 48 55 59 42 41 26 38 42 32 57 41 44 47 45 60 50 78 64 58 54 80 72 71 105 108 140 191 260 435 633 824 1003 986 797 658 467 289 229 174 133 115 109 118 100 128 145 152 216 325 387 473 505 487 363 322 203 151 127 91 70 53 57 56 43 46 45 43 29 42 42 51 48 47 43 42 38 44 38 37 48 36 32 33 48 45 47 33 47 33 40 31 48 36 20 39 30 37 29 30 46 25 30 44 32 40 34 38 34 38 33 28 30 50 30 36 38 23 26 31 36 26 31 28 41 26 37 36 35 40 39 37 43 35 40 25 29 29 33 33 50 25 43 36 28 43 38 35 43 42 48 37 32 38 34 40 20 31 28 38 45 37 39 28 24 33 43 39 33 49 41 46 40 31 35 34 38 43 16 34 37 33 33 33 34 45 23 38 39 46 38 38 39 32 41 42 31 45 46 51 37 45 46 45 40 55 57 48 56 41 45 48 45 54 56 56 48 59 43 51 52 70 59 59 68 67 84 79 83 93 85 116 97 140 154 188 247 409 574 904 1173 1341 1430 1274 1010 723 504 357 278 198 188 149 148 129 125 144 158 181 218 369 454 583 718 780 605 530 434 303 225 149 126 93 95 80 70 80 59 61 55 40 49 56 52 61 56 51 49 43 50 42 54 45 42 46 47 53 37 39 39 47 40 45 42 47 41 52 52 27 48 31 33 44 37 48 44 36 41 38 35 46 42 49 38 45 35 46 46 43 49 36 38 49 33 40 50 31 39 51 49 35 36 38 38 35 47 45 39 44 44 53 49 38 40 53 25 41 34 48 48 46 38 51 36 40 42 46 30 44 41 43 48 38 35 39 42 53 46 40 36 34 53 35 40 36 48 42 36 51 49 35 45 48 42 39 36 39 45 51 26 54 49 34 37 37 50 44 59 49 52 46 51 53 55 43 65 56 48 60 73 60 71 63 66 63 54 67 50 71 60 62 58 65 65 73 81 79 91 76 94 117 113 128 140 164 140 144 186 210 225 270 337 468 636 1052 1509 2166 2738 2987 2878 2376 1920 1388 879 634 493 376 321 291 260 253 234 228 248 282 329 432 629 809 1070 1242 1447 1401 1206 956 706 532 365 257 209 179 173 127 114 118 106 94 86 81 81 61 88 56 63 56 68 63 74 58 48 57 53 61 38 48 62 39 48 53 49 59 48 57 50 49 51 48 49 55 50 42 37 41 46 50 58 45 42 46 51 44 42 47 54 42 40 45 50 49 44 39 50 35 48 40 63 45 52 49 53 49 39 47 41 36 31 48 48 51 49 49 39 39 57 41 47 42 57 49 48 50 40 43 36 35 40 46 40 43 50 54 47 51 60 51 45 45 46 56 40 44 45 49 45 40 45 46 36 42 42 49 57 39 52 44 48 36 51 49 39 46 61 54 50 35 56 44 58 54 48 46 52 38 44 56 39 50 43 54 56 50 48 57 62 46 47</intensities>
			</dataPoints>
		</scan>
	</xrdMeasurement>
</xrdMeasurements>
